p edge 75 1110
e 1 5
e 1 6
e 1 11
e 1 13
e 1 16
e 1 19
e 1 20
e 1 21
e 1 24
e 1 25
e 1 27
e 1 29
e 1 30
e 1 31
e 1 35
e 1 37
e 1 41
e 1 42
e 1 47
e 1 48
e 1 49
e 1 58
e 1 62
e 1 65
e 1 68
e 1 70
e 2 6
e 2 10
e 2 11
e 2 12
e 2 17
e 2 18
e 2 20
e 2 23
e 2 27
e 2 30
e 2 31
e 2 36
e 2 38
e 2 40
e 2 43
e 2 44
e 2 48
e 2 50
e 2 53
e 2 54
e 2 56
e 2 58
e 2 64
e 2 66
e 2 74
e 2 75
e 3 4
e 3 5
e 3 6
e 3 11
e 3 12
e 3 14
e 3 15
e 3 16
e 3 19
e 3 22
e 3 23
e 3 25
e 3 26
e 3 27
e 3 28
e 3 29
e 3 31
e 3 32
e 3 36
e 3 37
e 3 38
e 3 41
e 3 43
e 3 44
e 3 45
e 3 46
e 3 47
e 3 49
e 3 52
e 3 54
e 3 56
e 3 57
e 3 63
e 3 68
e 3 69
e 3 72
e 3 73
e 3 74
e 4 6
e 4 13
e 4 17
e 4 19
e 4 25
e 4 27
e 4 29
e 4 30
e 4 35
e 4 36
e 4 37
e 4 38
e 4 39
e 4 40
e 4 41
e 4 43
e 4 44
e 4 46
e 4 49
e 4 52
e 4 54
e 4 58
e 4 59
e 4 60
e 4 62
e 4 64
e 4 72
e 4 73
e 4 74
e 5 7
e 5 10
e 5 21
e 5 26
e 5 31
e 5 34
e 5 35
e 5 37
e 5 38
e 5 39
e 5 43
e 5 44
e 5 45
e 5 48
e 5 50
e 5 56
e 5 58
e 5 62
e 5 63
e 5 68
e 5 69
e 5 70
e 5 71
e 5 73
e 5 74
e 5 75
e 6 10
e 6 20
e 6 24
e 6 28
e 6 33
e 6 39
e 6 40
e 6 41
e 6 43
e 6 44
e 6 46
e 6 49
e 6 50
e 6 51
e 6 53
e 6 62
e 6 64
e 6 68
e 6 70
e 6 71
e 7 9
e 7 13
e 7 14
e 7 21
e 7 22
e 7 24
e 7 28
e 7 30
e 7 36
e 7 38
e 7 41
e 7 46
e 7 47
e 7 48
e 7 50
e 7 51
e 7 52
e 7 54
e 7 55
e 7 56
e 7 58
e 7 59
e 7 65
e 7 71
e 7 72
e 7 73
e 7 75
e 8 12
e 8 13
e 8 14
e 8 15
e 8 16
e 8 17
e 8 18
e 8 19
e 8 21
e 8 26
e 8 28
e 8 29
e 8 31
e 8 35
e 8 39
e 8 41
e 8 44
e 8 47
e 8 51
e 8 52
e 8 56
e 8 58
e 8 60
e 8 62
e 8 64
e 8 65
e 8 66
e 8 73
e 8 75
e 9 14
e 9 16
e 9 17
e 9 18
e 9 21
e 9 24
e 9 35
e 9 36
e 9 37
e 9 40
e 9 41
e 9 42
e 9 47
e 9 48
e 9 51
e 9 54
e 9 55
e 9 62
e 9 67
e 9 70
e 9 73
e 9 74
e 9 75
e 10 11
e 10 12
e 10 13
e 10 14
e 10 15
e 10 17
e 10 18
e 10 19
e 10 23
e 10 24
e 10 27
e 10 28
e 10 29
e 10 31
e 10 32
e 10 33
e 10 40
e 10 42
e 10 45
e 10 52
e 10 53
e 10 54
e 10 55
e 10 56
e 10 57
e 10 62
e 10 63
e 10 65
e 10 68
e 10 69
e 10 70
e 10 71
e 10 72
e 10 73
e 10 74
e 10 75
e 11 13
e 11 14
e 11 15
e 11 17
e 11 18
e 11 19
e 11 20
e 11 23
e 11 30
e 11 32
e 11 35
e 11 36
e 11 38
e 11 40
e 11 41
e 11 46
e 11 49
e 11 55
e 11 60
e 11 61
e 11 63
e 11 64
e 11 68
e 11 69
e 11 70
e 11 75
e 12 14
e 12 16
e 12 21
e 12 25
e 12 29
e 12 31
e 12 36
e 12 43
e 12 45
e 12 47
e 12 48
e 12 49
e 12 53
e 12 54
e 12 58
e 12 61
e 12 62
e 12 63
e 12 64
e 12 65
e 12 66
e 12 72
e 12 74
e 12 75
e 13 18
e 13 19
e 13 20
e 13 22
e 13 24
e 13 27
e 13 29
e 13 30
e 13 32
e 13 33
e 13 35
e 13 38
e 13 41
e 13 45
e 13 47
e 13 48
e 13 49
e 13 50
e 13 53
e 13 54
e 13 55
e 13 56
e 13 58
e 13 60
e 13 62
e 13 65
e 13 66
e 13 70
e 13 71
e 13 73
e 13 75
e 14 15
e 14 16
e 14 18
e 14 25
e 14 28
e 14 38
e 14 40
e 14 42
e 14 43
e 14 46
e 14 47
e 14 51
e 14 53
e 14 59
e 14 63
e 14 65
e 14 69
e 14 72
e 15 17
e 15 24
e 15 26
e 15 31
e 15 32
e 15 35
e 15 36
e 15 42
e 15 44
e 15 45
e 15 50
e 15 51
e 15 54
e 15 56
e 15 59
e 15 61
e 15 63
e 15 64
e 15 66
e 15 67
e 15 69
e 15 71
e 15 74
e 16 19
e 16 21
e 16 29
e 16 31
e 16 35
e 16 41
e 16 45
e 16 47
e 16 50
e 16 51
e 16 53
e 16 54
e 16 56
e 16 57
e 16 59
e 16 61
e 16 62
e 16 63
e 16 65
e 16 68
e 16 69
e 16 70
e 16 74
e 17 18
e 17 19
e 17 26
e 17 27
e 17 28
e 17 33
e 17 35
e 17 36
e 17 37
e 17 38
e 17 39
e 17 40
e 17 43
e 17 44
e 17 49
e 17 51
e 17 53
e 17 55
e 17 57
e 17 59
e 17 60
e 17 61
e 17 62
e 17 63
e 17 65
e 17 66
e 17 67
e 17 71
e 17 72
e 17 73
e 17 74
e 17 75
e 18 20
e 18 25
e 18 26
e 18 28
e 18 33
e 18 35
e 18 38
e 18 40
e 18 47
e 18 48
e 18 52
e 18 55
e 18 57
e 18 58
e 18 59
e 18 61
e 18 62
e 18 64
e 18 65
e 18 66
e 18 67
e 18 69
e 18 74
e 18 75
e 19 25
e 19 26
e 19 28
e 19 29
e 19 30
e 19 33
e 19 38
e 19 41
e 19 42
e 19 44
e 19 47
e 19 48
e 19 52
e 19 53
e 19 64
e 19 65
e 19 67
e 19 69
e 19 71
e 19 73
e 20 26
e 20 28
e 20 29
e 20 30
e 20 33
e 20 34
e 20 36
e 20 43
e 20 44
e 20 46
e 20 47
e 20 49
e 20 51
e 20 54
e 20 61
e 20 62
e 20 64
e 20 65
e 20 69
e 20 71
e 21 29
e 21 31
e 21 33
e 21 36
e 21 40
e 21 41
e 21 42
e 21 47
e 21 51
e 21 52
e 21 56
e 21 59
e 21 60
e 21 64
e 21 66
e 21 67
e 21 68
e 21 69
e 21 70
e 21 74
e 21 75
e 22 23
e 22 24
e 22 28
e 22 29
e 22 32
e 22 33
e 22 37
e 22 41
e 22 44
e 22 46
e 22 51
e 22 60
e 22 63
e 22 64
e 22 68
e 22 70
e 22 71
e 22 74
e 23 27
e 23 28
e 23 43
e 23 48
e 23 49
e 23 50
e 23 53
e 23 56
e 23 57
e 23 59
e 23 61
e 23 62
e 23 64
e 23 66
e 23 68
e 23 69
e 23 70
e 24 25
e 24 26
e 24 28
e 24 30
e 24 36
e 24 38
e 24 40
e 24 41
e 24 46
e 24 49
e 24 50
e 24 51
e 24 56
e 24 59
e 24 60
e 24 61
e 24 62
e 24 65
e 24 67
e 24 68
e 24 75
e 25 26
e 25 27
e 25 28
e 25 30
e 25 33
e 25 36
e 25 37
e 25 41
e 25 42
e 25 44
e 25 45
e 25 47
e 25 48
e 25 53
e 25 54
e 25 56
e 25 59
e 25 60
e 25 63
e 25 64
e 25 68
e 25 73
e 25 74
e 25 75
e 26 27
e 26 29
e 26 32
e 26 33
e 26 37
e 26 40
e 26 44
e 26 45
e 26 47
e 26 48
e 26 51
e 26 52
e 26 55
e 26 56
e 26 59
e 26 61
e 26 63
e 26 65
e 26 66
e 26 67
e 26 69
e 26 70
e 26 71
e 26 72
e 26 75
e 27 29
e 27 36
e 27 39
e 27 40
e 27 41
e 27 46
e 27 50
e 27 53
e 27 54
e 27 55
e 27 56
e 27 58
e 27 59
e 27 61
e 27 66
e 27 69
e 27 71
e 27 72
e 28 29
e 28 30
e 28 33
e 28 38
e 28 41
e 28 42
e 28 44
e 28 46
e 28 52
e 28 53
e 28 57
e 28 62
e 28 64
e 28 65
e 28 71
e 28 73
e 29 30
e 29 31
e 29 34
e 29 35
e 29 36
e 29 37
e 29 38
e 29 42
e 29 45
e 29 47
e 29 50
e 29 51
e 29 54
e 29 55
e 29 58
e 29 61
e 29 62
e 29 68
e 29 70
e 29 71
e 29 72
e 29 75
e 30 35
e 30 37
e 30 39
e 30 40
e 30 44
e 30 47
e 30 49
e 30 53
e 30 54
e 30 56
e 30 62
e 30 63
e 30 65
e 30 66
e 30 67
e 30 70
e 30 71
e 30 73
e 30 74
e 31 32
e 31 34
e 31 35
e 31 36
e 31 39
e 31 40
e 31 42
e 31 43
e 31 45
e 31 46
e 31 53
e 31 54
e 31 55
e 31 59
e 31 60
e 31 65
e 31 70
e 32 36
e 32 38
e 32 41
e 32 42
e 32 44
e 32 45
e 32 47
e 32 49
e 32 50
e 32 52
e 32 57
e 32 59
e 32 60
e 32 61
e 32 63
e 32 64
e 32 66
e 32 69
e 32 72
e 33 34
e 33 37
e 33 40
e 33 46
e 33 49
e 33 52
e 33 55
e 33 57
e 33 58
e 33 59
e 33 68
e 33 70
e 33 72
e 33 74
e 33 75
e 34 37
e 34 38
e 34 40
e 34 49
e 34 52
e 34 54
e 34 55
e 34 56
e 34 59
e 34 60
e 34 63
e 34 64
e 34 66
e 34 68
e 34 70
e 34 74
e 34 75
e 35 37
e 35 38
e 35 39
e 35 41
e 35 42
e 35 45
e 35 46
e 35 47
e 35 48
e 35 50
e 35 51
e 35 53
e 35 55
e 35 58
e 35 61
e 35 65
e 35 66
e 35 70
e 35 74
e 35 75
e 36 37
e 36 40
e 36 41
e 36 43
e 36 44
e 36 46
e 36 48
e 36 52
e 36 60
e 36 61
e 36 64
e 36 67
e 36 71
e 36 74
e 37 38
e 37 39
e 37 45
e 37 51
e 37 57
e 37 61
e 37 64
e 37 66
e 37 69
e 37 72
e 37 73
e 38 43
e 38 47
e 38 48
e 38 51
e 38 53
e 38 54
e 38 55
e 38 56
e 38 62
e 38 63
e 38 64
e 38 66
e 38 71
e 38 72
e 38 73
e 39 40
e 39 41
e 39 42
e 39 43
e 39 44
e 39 48
e 39 49
e 39 50
e 39 53
e 39 55
e 39 56
e 39 57
e 39 58
e 39 62
e 39 66
e 39 67
e 39 72
e 39 73
e 39 75
e 40 41
e 40 45
e 40 46
e 40 49
e 40 52
e 40 55
e 40 67
e 40 68
e 40 74
e 40 75
e 41 42
e 41 44
e 41 46
e 41 48
e 41 50
e 41 51
e 41 52
e 41 54
e 41 55
e 41 58
e 41 59
e 41 62
e 41 65
e 41 66
e 41 67
e 41 69
e 41 73
e 42 43
e 42 47
e 42 49
e 42 52
e 42 53
e 42 54
e 42 55
e 42 61
e 42 64
e 42 65
e 42 68
e 42 70
e 42 71
e 42 73
e 42 74
e 42 75
e 43 45
e 43 46
e 43 51
e 43 52
e 43 58
e 43 59
e 43 60
e 43 63
e 43 68
e 43 70
e 43 73
e 43 75
e 44 46
e 44 47
e 44 48
e 44 52
e 44 59
e 44 61
e 44 63
e 44 64
e 44 68
e 44 69
e 44 71
e 44 74
e 44 75
e 45 49
e 45 50
e 45 53
e 45 54
e 45 55
e 45 59
e 45 66
e 45 72
e 46 49
e 46 50
e 46 51
e 46 53
e 46 59
e 46 60
e 46 62
e 46 63
e 46 65
e 46 68
e 46 71
e 47 53
e 47 54
e 47 57
e 47 59
e 47 60
e 47 64
e 47 67
e 47 71
e 47 72
e 47 74
e 48 50
e 48 52
e 48 58
e 48 59
e 48 60
e 48 62
e 48 67
e 48 68
e 48 69
e 48 71
e 48 73
e 48 75
e 49 51
e 49 53
e 49 59
e 49 60
e 49 61
e 49 63
e 49 70
e 49 73
e 50 52
e 50 54
e 50 59
e 50 60
e 50 62
e 50 64
e 50 66
e 50 67
e 50 68
e 50 69
e 51 53
e 51 55
e 51 59
e 51 60
e 51 61
e 51 65
e 51 66
e 51 68
e 51 71
e 51 72
e 51 74
e 52 53
e 52 54
e 52 55
e 52 56
e 52 60
e 52 63
e 52 69
e 52 75
e 53 55
e 53 58
e 53 60
e 53 61
e 53 62
e 53 66
e 53 68
e 53 71
e 53 72
e 54 57
e 54 60
e 54 61
e 54 64
e 54 68
e 54 70
e 55 62
e 55 64
e 55 66
e 55 67
e 55 70
e 55 71
e 55 72
e 56 59
e 56 60
e 56 62
e 56 65
e 56 68
e 56 70
e 56 74
e 56 75
e 57 59
e 57 61
e 57 64
e 57 67
e 57 69
e 57 71
e 57 72
e 57 73
e 57 75
e 58 61
e 58 63
e 58 64
e 58 65
e 58 69
e 58 72
e 59 60
e 59 64
e 59 66
e 59 67
e 59 69
e 60 61
e 60 66
e 60 68
e 60 71
e 60 73
e 60 75
e 61 62
e 61 63
e 61 67
e 61 74
e 62 64
e 62 66
e 62 71
e 62 74
e 63 64
e 63 67
e 63 68
e 63 69
e 63 70
e 63 74
e 63 75
e 64 69
e 64 71
e 64 72
e 64 75
e 65 67
e 65 68
e 65 69
e 65 71
e 66 72
e 66 75
e 67 68
e 67 69
e 67 74
e 68 70
e 68 71
e 68 72
e 68 75
e 69 71
e 69 72
e 69 75
e 70 74
e 70 75
e 71 73
e 72 75
